instances/knapsack/discrete/knapsack_150_12.lp
\ Model knapsack_150_12
\ LP format - for model browsing. Use MPS format to capture full model detail.
\ Signature: 0x1d3d114bfbe69093
Minimize
  - 17 x[0] - 42 x[1] - 99 x[2] - 91 x[3] - 45 x[4] - 60 x[5] - 45 x[6]
   - 11 x[7] - 34 x[8] - 82 x[9] - 50 x[10] - 2 x[11] - 62 x[12] - 45 x[13]
   - 34 x[14] - 39 x[15] - 77 x[16] - 77 x[17] - 74 x[18] - 13 x[19]
   - 17 x[20] - 10 x[21] - 51 x[22] - 79 x[23] - 36 x[24] - 66 x[25]
   - 79 x[26] - 95 x[27] - 69 x[28] - 64 x[29] - 84 x[30] - 39 x[31]
   - 35 x[32] - 34 x[33] - 91 x[34] - 92 x[35] - 8 x[36] - 66 x[37]
   - 70 x[38] - 95 x[39] - 79 x[40] - 25 x[41] - 9 x[42] - 62 x[43]
   - 22 x[44] - 86 x[45] - 60 x[46] - 44 x[47] - 24 x[48] - 13 x[49]
   - 30 x[50] - 10 x[51] - 10 x[52] - 16 x[53] - 55 x[54] - 65 x[55]
   - 6 x[56] - 99 x[57] - 11 x[58] - 78 x[59] - 7 x[60] - 37 x[61]
   - 21 x[62] - 45 x[63] - 82 x[64] - 36 x[65] - 60 x[66] - 85 x[67]
   - 20 x[68] - 73 x[69] - 4 x[70] - 58 x[71] - 16 x[72] - x[73] - 66 x[74]
   - 65 x[75] - 97 x[76] - 36 x[77] - 99 x[78] - 95 x[79] - 18 x[80]
   - 41 x[81] - 29 x[82] - 85 x[83] - 92 x[84] - 68 x[85] - 49 x[86]
   - 54 x[87] - 35 x[88] - 2 x[89] - 9 x[90] - 9 x[91] - 17 x[92]
   - 92 x[93] - 11 x[94] - 74 x[95] - 20 x[96] - 11 x[97] - 28 x[98]
   - 16 x[99] - 64 x[100] - 25 x[101] - 10 x[102] - 97 x[103] - 90 x[104]
   - 30 x[105] - 61 x[106] - 64 x[107] - 93 x[108] - 12 x[109] - 41 x[110]
   - 9 x[111] - 41 x[112] - 71 x[113] - 5 x[114] - 20 x[115] - 10 x[116]
   - 88 x[117] - x[118] - 18 x[119] - 21 x[120] - 10 x[121] - 37 x[122]
   - 18 x[123] - 19 x[124] - 20 x[125] - 76 x[126] - 45 x[127] - 71 x[128]
   - 76 x[129] - 54 x[130] - 62 x[131] - 71 x[132] - 30 x[133] - 9 x[134]
   - 87 x[135] - 8 x[136] - x[137] - 18 x[138] - 97 x[139] - 49 x[140]
   - 96 x[141] - 93 x[142] - 31 x[143] - 47 x[144] - 30 x[145] - 60 x[146]
   - 22 x[147] - 100 x[148] - 2 x[149]
Subject To
 primal_upper: 67 x[0] + 31 x[1] + 49 x[2] + 54 x[3] + 71 x[4] + 5 x[5]
   + 68 x[6] + 63 x[7] + 100 x[8] + 41 x[9] + 63 x[10] + 30 x[11]
   + 75 x[12] + 67 x[13] + 8 x[14] + 68 x[15] + 56 x[16] + 87 x[17]
   + 64 x[18] + 93 x[19] + 32 x[20] + 3 x[21] + 35 x[22] + 62 x[23]
   + 44 x[24] + 19 x[25] + 57 x[26] + 75 x[27] + 37 x[28] + 82 x[29]
   + 57 x[30] + 99 x[31] + 27 x[32] + 48 x[33] + 55 x[34] + 76 x[35]
   + 3 x[36] + 88 x[37] + 31 x[38] + 42 x[39] + 58 x[40] + 73 x[41]
   + 29 x[42] + x[43] + 50 x[44] + 50 x[45] + 45 x[46] + 81 x[47]
   + 54 x[48] + 11 x[49] + 54 x[50] + 43 x[51] + 72 x[52] + 79 x[53]
   + 72 x[54] + 99 x[55] + 12 x[56] + 94 x[57] + 23 x[58] + 97 x[59]
   + 68 x[60] + 78 x[61] + 67 x[62] + 58 x[63] + 19 x[64] + 19 x[65]
   + 68 x[66] + 54 x[67] + 63 x[68] + 13 x[69] + 25 x[70] + 93 x[71]
   + 49 x[72] + 94 x[73] + 23 x[74] + 8 x[75] + 70 x[76] + 70 x[77]
   + 84 x[78] + 74 x[79] + 73 x[80] + 5 x[81] + 90 x[82] + 73 x[83]
   + 45 x[84] + 89 x[85] + 55 x[86] + 19 x[87] + 57 x[88] + 58 x[89]
   + 84 x[90] + 52 x[91] + 52 x[92] + 31 x[93] + 23 x[94] + 76 x[95]
   + 44 x[96] + 100 x[97] + 99 x[98] + 15 x[99] + 44 x[100] + 39 x[101]
   + 45 x[102] + 35 x[103] + 92 x[104] + 5 x[105] + 58 x[106] + 50 x[107]
   + 66 x[108] + 40 x[109] + 46 x[110] + 38 x[111] + 52 x[112] + 28 x[113]
   + 28 x[114] + 82 x[115] + 82 x[116] + 24 x[117] + 52 x[118] + 12 x[119]
   + 71 x[120] + 64 x[121] + 63 x[122] + 22 x[123] + 44 x[124] + 58 x[125]
   + 83 x[126] + 11 x[127] + 18 x[128] + 54 x[129] + 89 x[130] + 72 x[131]
   + 86 x[132] + 39 x[133] + 36 x[134] + 57 x[135] + 20 x[136] + 66 x[137]
   + 65 x[138] + 35 x[139] + 14 x[140] + 36 x[141] + 34 x[142] + 94 x[143]
   + 20 x[144] + 29 x[145] + 5 x[146] + 6 x[147] + 24 x[148] + 77 x[149]
   + 6.7 r[0] + 3.1 r[1] + 4.9 r[2] + 5.4 r[3] + 7.1 r[4] + 0.5 r[5]
   + 6.8 r[6] + 6.3 r[7] + 10 r[8] + 4.1 r[9] + 6.3 r[10] + 3 r[11]
   + 7.5 r[12] + 6.7 r[13] + 0.8 r[14] + 6.8 r[15] + 5.6 r[16] + 8.7 r[17]
   + 6.4 r[18] + 9.3 r[19] + 3.2 r[20] + 0.3 r[21] + 3.5 r[22] + 6.2 r[23]
   + 4.4 r[24] + 1.9 r[25] + 5.7 r[26] + 7.5 r[27] + 3.7 r[28] + 8.2 r[29]
   + 5.7 r[30] + 9.9 r[31] + 2.7 r[32] + 4.8 r[33] + 5.5 r[34] + 7.6 r[35]
   + 0.3 r[36] + 8.8 r[37] + 3.1 r[38] + 4.2 r[39] + 5.8 r[40] + 7.3 r[41]
   + 2.9 r[42] + 0.1 r[43] + 5 r[44] + 5 r[45] + 4.5 r[46] + 8.1 r[47]
   + 5.4 r[48] + 1.1 r[49] + 5.4 r[50] + 4.3 r[51] + 7.2 r[52] + 7.9 r[53]
   + 7.2 r[54] + 9.9 r[55] + 1.2 r[56] + 9.4 r[57] + 2.3 r[58] + 9.7 r[59]
   + 6.8 r[60] + 7.8 r[61] + 6.7 r[62] + 5.8 r[63] + 1.9 r[64] + 1.9 r[65]
   + 6.8 r[66] + 5.4 r[67] + 6.3 r[68] + 1.3 r[69] + 2.5 r[70] + 9.3 r[71]
   + 4.9 r[72] + 9.4 r[73] + 2.3 r[74] + 0.8 r[75] + 7 r[76] + 7 r[77]
   + 8.4 r[78] + 7.4 r[79] + 7.3 r[80] + 0.5 r[81] + 9 r[82] + 7.3 r[83]
   + 4.5 r[84] + 8.9 r[85] + 5.5 r[86] + 1.9 r[87] + 5.7 r[88] + 5.8 r[89]
   + 8.4 r[90] + 5.2 r[91] + 5.2 r[92] + 3.1 r[93] + 2.3 r[94] + 7.6 r[95]
   + 4.4 r[96] + 10 r[97] + 9.9 r[98] + 1.5 r[99] + 4.4 r[100] + 3.9 r[101]
   + 4.5 r[102] + 3.5 r[103] + 9.2 r[104] + 0.5 r[105] + 5.8 r[106]
   + 5 r[107] + 6.6 r[108] + 4 r[109] + 4.6 r[110] + 3.8 r[111]
   + 5.2 r[112] + 2.8 r[113] + 2.8 r[114] + 8.2 r[115] + 8.2 r[116]
   + 2.4 r[117] + 5.2 r[118] + 1.2 r[119] + 7.1 r[120] + 6.4 r[121]
   + 6.3 r[122] + 2.2 r[123] + 4.4 r[124] + 5.8 r[125] + 8.3 r[126]
   + 1.1 r[127] + 1.8 r[128] + 5.4 r[129] + 8.9 r[130] + 7.2 r[131]
   + 8.6 r[132] + 3.9 r[133] + 3.6 r[134] + 5.7 r[135] + 2 r[136]
   + 6.6 r[137] + 6.5 r[138] + 3.5 r[139] + 1.4 r[140] + 3.6 r[141]
   + 3.4 r[142] + 9.4 r[143] + 2 r[144] + 2.9 r[145] + 0.5 r[146]
   + 0.6 r[147] + 2.4 r[148] + 7.7 r[149] <= 740
 primal_lower: 2.944265764114124 x[0] + 1.698255049785649 x[1]
   + 0.0640192850390575 x[2] + 2.984538257344076 x[3]
   + 0.7619912839160957 x[4] + 1.922636350270046 x[5]
   + 4.439185171056541 x[6] + 1.991220922690526 x[7]
   + 3.352803087281308 x[8] + 2.242504775213838 x[9]
   + 0.3959703185954662 x[10] + 0.918362467657998 x[11]
   + 3.591513870610243 x[12] + 0.2628580428055293 x[13]
   + 2.2861511937943 x[14] + 2.789737412472762 x[15]
   + 0.437670701166654 x[16] + 0.3343589720103379 x[17]
   + 0.6873519011266851 x[18] + 1.373067118726642 x[19]
   + 0.5382689011827955 x[20] + 3.641563278692766 x[21]
   + 3.605982851489465 x[22] + 2.540654786812337 x[23]
   + 4.20978553908473 x[24] + 0.885093033649587 x[25]
   + 3.795349582721642 x[26] + 2.85969174925285 x[27]
   + 3.18410020931839 x[28] + 4.013957874987863 x[29]
   + 3.173856722626041 x[30] + 1.772681412330119 x[31]
   + 1.062645624051604 x[32] + 2.333106546658799 x[33]
   + 2.969492328178597 x[34] + 0.2623632604879046 x[35]
   + 0.2587412372041609 x[36] + 0.8945456676411013 x[37]
   + 2.185511940332707 x[38] + 4.106906737245008 x[39]
   + 1.818448049722101 x[40] + 2.844668714810597 x[41]
   + 3.571264956450671 x[42] + 2.514936105196235 x[43]
   + 1.618587807954877 x[44] + 1.528804590008046 x[45]
   + 1.196023154551602 x[46] + 4.186914319527284 x[47]
   + 3.804320357235257 x[48] + 3.902142970689154 x[49]
   + 4.404003366806037 x[50] + 0.6300452795627633 x[51]
   + 0.4582484093609739 x[52] + 2.219986410496945 x[53]
   + 2.693369737667811 x[54] + 0.8205786201076964 x[55]
   + 1.557272582885216 x[56] + 2.632324182925768 x[57]
   + 3.631238001894616 x[58] + 3.602225612745212 x[59]
   + 2.181659650616291 x[60] + 4.525721160205816 x[61]
   + 1.493698332588997 x[62] + 0.5230930108056602 x[63]
   + 4.652803412952597 x[64] + 2.142711204325253 x[65]
   + 3.297457833288985 x[66] + 4.367108665258558 x[67]
   + 3.348185320159494 x[68] + 4.231729259198731 x[69]
   + 2.466307676151307 x[70] + 0.2699100103037212 x[71]
   + 0.4312778856426824 x[72] + 3.854811429788537 x[73]
   + 3.489331941805131 x[74] + 4.438023888350225 x[75]
   + 2.870074773450483 x[76] + 1.842022856707484 x[77]
   + 0.9580313122568628 x[78] + 3.240839194317656 x[79]
   + 3.926725825977672 x[80] + 1.561016985684429 x[81]
   + 3.348668712716148 x[82] + 4.238365715758588 x[83]
   + 3.019959172090979 x[84] + 1.02208350098959 x[85]
   + 4.71857493027687 x[86] + 0.1634761129908192 x[87]
   + 2.603033145545476 x[88] + 2.434191285793816 x[89]
   + 0.202297605281333 x[90] + 0.9456792644781182 x[91]
   + 4.642577579800861 x[92] + 1.972744291044381 x[93]
   + 3.669889190660995 x[94] + 3.925920790455256 x[95]
   + 3.683843526065532 x[96] + 0.525165570412191 x[97]
   + 0.8608012514470919 x[98] + 0.8937822852534955 x[99]
   + 1.679233485935382 x[100] + 0.9345708463617417 x[101]
   + 1.144967741302649 x[102] + 1.255828002938648 x[103]
   + 0.8581385365237243 x[104] + 0.4624644699462565 x[105]
   + 1.316917972695698 x[106] + 0.8178460508185401 x[107]
   + 1.301071416343308 x[108] + 1.134375557928823 x[109]
   + 2.46067990972823 x[110] + 4.097987523276402 x[111]
   + 1.062399439220621 x[112] + 3.375360698832604 x[113]
   + 0.1052385472633344 x[114] + 0.1584369116273929 x[115]
   + 0.1006707856240261 x[116] + 2.433482639387186 x[117]
   + 1.133808023262086 x[118] + 0.6394884374981724 x[119]
   + 1.335066830723278 x[120] + 0.1747241279877261 x[121]
   + 1.578848315326202 x[122] + 4.41682553746838 x[123]
   + 4.085385082242635 x[124] + 3.441234318040173 x[125]
   + 4.464491118510147 x[126] + 2.923006277910204 x[127]
   + 1.408536675361048 x[128] + 3.518917986566428 x[129]
   + 0.3845709700354842 x[130] + 0.7025306164027152 x[131]
   + 4.517550634370474 x[132] + 4.154389782126488 x[133]
   + 3.304142680795329 x[134] + 4.503034545885089 x[135]
   + 1.56061179578977 x[136] + 4.162857275944364 x[137]
   + 2.759611068978564 x[138] + 0.3281517722049927 x[139]
   + 1.199257163741892 x[140] + 4.378899344175725 x[141]
   + 0.0546716212889426 x[142] + 0.9742480304635905 x[143]
   + 2.881362316580256 x[144] + 0.5002794966407607 x[145]
   + 0.7431375744046499 x[146] + 3.715618151565845 x[147]
   + 2.827776209012792 x[148] + 0.9753234745598646 x[149] + 99 u[0]
   + 36 u[1] + 58 u[2] + 31 u[3] + 16 u[4] + 61 u[5] + 17 u[6] + 7 u[7]
   + 49 u[8] + 94 u[9] + 39 u[10] + 75 u[11] + 64 u[12] + 44 u[13]
   + 100 u[14] + 60 u[15] + 69 u[16] + 8 u[17] + 41 u[18] + 26 u[19]
   + 77 u[20] + 67 u[21] + 88 u[22] + 42 u[23] + 72 u[24] + 60 u[25]
   + 30 u[26] + 75 u[27] + 17 u[28] + 39 u[29] + 33 u[30] + 19 u[31]
   + 23 u[32] + 61 u[33] + 48 u[34] + 9 u[35] + 68 u[36] + 44 u[37]
   + 76 u[38] + 38 u[39] + 3 u[40] + 5 u[41] + 50 u[42] + 89 u[43]
   + 99 u[44] + 94 u[45] + 17 u[46] + 65 u[47] + 83 u[48] + 96 u[49]
   + 82 u[50] + 80 u[51] + 21 u[52] + 100 u[53] + 88 u[54] + 75 u[55]
   + 85 u[56] + 46 u[57] + 56 u[58] + 38 u[59] + 64 u[60] + 22 u[61]
   + 67 u[62] + 86 u[63] + 35 u[64] + 40 u[65] + 32 u[66] + 42 u[67]
   + 92 u[68] + 33 u[69] + 81 u[70] + 89 u[71] + 62 u[72] + 3 u[73]
   + 35 u[74] + 92 u[75] + 90 u[76] + 3 u[77] + 72 u[78] + 38 u[79]
   + 33 u[80] + 93 u[81] + 22 u[82] + 85 u[83] + 61 u[84] + 49 u[85]
   + 67 u[86] + 68 u[87] + 74 u[88] + 15 u[89] + 4 u[90] + 24 u[91]
   + 12 u[92] + 59 u[93] + 92 u[94] + 29 u[95] + 57 u[96] + 96 u[97]
   + 56 u[98] + 44 u[99] + 57 u[100] + 84 u[101] + 6 u[102] + 48 u[103]
   + 5 u[104] + 30 u[105] + 55 u[106] + 98 u[107] + 58 u[108] + 25 u[109]
   + 34 u[110] + 27 u[111] + 33 u[112] + 41 u[113] + 81 u[114] + 34 u[115]
   + 75 u[116] + 65 u[117] + 73 u[118] + 52 u[119] + 79 u[120] + 20 u[121]
   + 3 u[122] + 54 u[123] + 85 u[124] + 38 u[125] + 55 u[126] + 31 u[127]
   + 66 u[128] + 51 u[129] + 17 u[130] + 13 u[131] + 22 u[132] + 12 u[133]
   + 60 u[134] + 26 u[135] + 97 u[136] + 42 u[137] + 73 u[138] + 12 u[139]
   + 71 u[140] + 16 u[141] + 3 u[142] + 47 u[143] + 93 u[144] + 82 u[145]
   + 34 u[146] + 31 u[147] + 28 u[148] + 58 u[149] <= 48629
 mccormick1[0]: - u[0] + r[0] <= 0
 mccormick1[1]: - u[1] + r[1] <= 0
 mccormick1[2]: - u[2] + r[2] <= 0
 mccormick1[3]: - u[3] + r[3] <= 0
 mccormick1[4]: - u[4] + r[4] <= 0
 mccormick1[5]: - u[5] + r[5] <= 0
 mccormick1[6]: - u[6] + r[6] <= 0
 mccormick1[7]: - u[7] + r[7] <= 0
 mccormick1[8]: - u[8] + r[8] <= 0
 mccormick1[9]: - u[9] + r[9] <= 0
 mccormick1[10]: - u[10] + r[10] <= 0
 mccormick1[11]: - u[11] + r[11] <= 0
 mccormick1[12]: - u[12] + r[12] <= 0
 mccormick1[13]: - u[13] + r[13] <= 0
 mccormick1[14]: - u[14] + r[14] <= 0
 mccormick1[15]: - u[15] + r[15] <= 0
 mccormick1[16]: - u[16] + r[16] <= 0
 mccormick1[17]: - u[17] + r[17] <= 0
 mccormick1[18]: - u[18] + r[18] <= 0
 mccormick1[19]: - u[19] + r[19] <= 0
 mccormick1[20]: - u[20] + r[20] <= 0
 mccormick1[21]: - u[21] + r[21] <= 0
 mccormick1[22]: - u[22] + r[22] <= 0
 mccormick1[23]: - u[23] + r[23] <= 0
 mccormick1[24]: - u[24] + r[24] <= 0
 mccormick1[25]: - u[25] + r[25] <= 0
 mccormick1[26]: - u[26] + r[26] <= 0
 mccormick1[27]: - u[27] + r[27] <= 0
 mccormick1[28]: - u[28] + r[28] <= 0
 mccormick1[29]: - u[29] + r[29] <= 0
 mccormick1[30]: - u[30] + r[30] <= 0
 mccormick1[31]: - u[31] + r[31] <= 0
 mccormick1[32]: - u[32] + r[32] <= 0
 mccormick1[33]: - u[33] + r[33] <= 0
 mccormick1[34]: - u[34] + r[34] <= 0
 mccormick1[35]: - u[35] + r[35] <= 0
 mccormick1[36]: - u[36] + r[36] <= 0
 mccormick1[37]: - u[37] + r[37] <= 0
 mccormick1[38]: - u[38] + r[38] <= 0
 mccormick1[39]: - u[39] + r[39] <= 0
 mccormick1[40]: - u[40] + r[40] <= 0
 mccormick1[41]: - u[41] + r[41] <= 0
 mccormick1[42]: - u[42] + r[42] <= 0
 mccormick1[43]: - u[43] + r[43] <= 0
 mccormick1[44]: - u[44] + r[44] <= 0
 mccormick1[45]: - u[45] + r[45] <= 0
 mccormick1[46]: - u[46] + r[46] <= 0
 mccormick1[47]: - u[47] + r[47] <= 0
 mccormick1[48]: - u[48] + r[48] <= 0
 mccormick1[49]: - u[49] + r[49] <= 0
 mccormick1[50]: - u[50] + r[50] <= 0
 mccormick1[51]: - u[51] + r[51] <= 0
 mccormick1[52]: - u[52] + r[52] <= 0
 mccormick1[53]: - u[53] + r[53] <= 0
 mccormick1[54]: - u[54] + r[54] <= 0
 mccormick1[55]: - u[55] + r[55] <= 0
 mccormick1[56]: - u[56] + r[56] <= 0
 mccormick1[57]: - u[57] + r[57] <= 0
 mccormick1[58]: - u[58] + r[58] <= 0
 mccormick1[59]: - u[59] + r[59] <= 0
 mccormick1[60]: - u[60] + r[60] <= 0
 mccormick1[61]: - u[61] + r[61] <= 0
 mccormick1[62]: - u[62] + r[62] <= 0
 mccormick1[63]: - u[63] + r[63] <= 0
 mccormick1[64]: - u[64] + r[64] <= 0
 mccormick1[65]: - u[65] + r[65] <= 0
 mccormick1[66]: - u[66] + r[66] <= 0
 mccormick1[67]: - u[67] + r[67] <= 0
 mccormick1[68]: - u[68] + r[68] <= 0
 mccormick1[69]: - u[69] + r[69] <= 0
 mccormick1[70]: - u[70] + r[70] <= 0
 mccormick1[71]: - u[71] + r[71] <= 0
 mccormick1[72]: - u[72] + r[72] <= 0
 mccormick1[73]: - u[73] + r[73] <= 0
 mccormick1[74]: - u[74] + r[74] <= 0
 mccormick1[75]: - u[75] + r[75] <= 0
 mccormick1[76]: - u[76] + r[76] <= 0
 mccormick1[77]: - u[77] + r[77] <= 0
 mccormick1[78]: - u[78] + r[78] <= 0
 mccormick1[79]: - u[79] + r[79] <= 0
 mccormick1[80]: - u[80] + r[80] <= 0
 mccormick1[81]: - u[81] + r[81] <= 0
 mccormick1[82]: - u[82] + r[82] <= 0
 mccormick1[83]: - u[83] + r[83] <= 0
 mccormick1[84]: - u[84] + r[84] <= 0
 mccormick1[85]: - u[85] + r[85] <= 0
 mccormick1[86]: - u[86] + r[86] <= 0
 mccormick1[87]: - u[87] + r[87] <= 0
 mccormick1[88]: - u[88] + r[88] <= 0
 mccormick1[89]: - u[89] + r[89] <= 0
 mccormick1[90]: - u[90] + r[90] <= 0
 mccormick1[91]: - u[91] + r[91] <= 0
 mccormick1[92]: - u[92] + r[92] <= 0
 mccormick1[93]: - u[93] + r[93] <= 0
 mccormick1[94]: - u[94] + r[94] <= 0
 mccormick1[95]: - u[95] + r[95] <= 0
 mccormick1[96]: - u[96] + r[96] <= 0
 mccormick1[97]: - u[97] + r[97] <= 0
 mccormick1[98]: - u[98] + r[98] <= 0
 mccormick1[99]: - u[99] + r[99] <= 0
 mccormick1[100]: - u[100] + r[100] <= 0
 mccormick1[101]: - u[101] + r[101] <= 0
 mccormick1[102]: - u[102] + r[102] <= 0
 mccormick1[103]: - u[103] + r[103] <= 0
 mccormick1[104]: - u[104] + r[104] <= 0
 mccormick1[105]: - u[105] + r[105] <= 0
 mccormick1[106]: - u[106] + r[106] <= 0
 mccormick1[107]: - u[107] + r[107] <= 0
 mccormick1[108]: - u[108] + r[108] <= 0
 mccormick1[109]: - u[109] + r[109] <= 0
 mccormick1[110]: - u[110] + r[110] <= 0
 mccormick1[111]: - u[111] + r[111] <= 0
 mccormick1[112]: - u[112] + r[112] <= 0
 mccormick1[113]: - u[113] + r[113] <= 0
 mccormick1[114]: - u[114] + r[114] <= 0
 mccormick1[115]: - u[115] + r[115] <= 0
 mccormick1[116]: - u[116] + r[116] <= 0
 mccormick1[117]: - u[117] + r[117] <= 0
 mccormick1[118]: - u[118] + r[118] <= 0
 mccormick1[119]: - u[119] + r[119] <= 0
 mccormick1[120]: - u[120] + r[120] <= 0
 mccormick1[121]: - u[121] + r[121] <= 0
 mccormick1[122]: - u[122] + r[122] <= 0
 mccormick1[123]: - u[123] + r[123] <= 0
 mccormick1[124]: - u[124] + r[124] <= 0
 mccormick1[125]: - u[125] + r[125] <= 0
 mccormick1[126]: - u[126] + r[126] <= 0
 mccormick1[127]: - u[127] + r[127] <= 0
 mccormick1[128]: - u[128] + r[128] <= 0
 mccormick1[129]: - u[129] + r[129] <= 0
 mccormick1[130]: - u[130] + r[130] <= 0
 mccormick1[131]: - u[131] + r[131] <= 0
 mccormick1[132]: - u[132] + r[132] <= 0
 mccormick1[133]: - u[133] + r[133] <= 0
 mccormick1[134]: - u[134] + r[134] <= 0
 mccormick1[135]: - u[135] + r[135] <= 0
 mccormick1[136]: - u[136] + r[136] <= 0
 mccormick1[137]: - u[137] + r[137] <= 0
 mccormick1[138]: - u[138] + r[138] <= 0
 mccormick1[139]: - u[139] + r[139] <= 0
 mccormick1[140]: - u[140] + r[140] <= 0
 mccormick1[141]: - u[141] + r[141] <= 0
 mccormick1[142]: - u[142] + r[142] <= 0
 mccormick1[143]: - u[143] + r[143] <= 0
 mccormick1[144]: - u[144] + r[144] <= 0
 mccormick1[145]: - u[145] + r[145] <= 0
 mccormick1[146]: - u[146] + r[146] <= 0
 mccormick1[147]: - u[147] + r[147] <= 0
 mccormick1[148]: - u[148] + r[148] <= 0
 mccormick1[149]: - u[149] + r[149] <= 0
 mccormick2[0]: - x[0] + r[0] <= 0
 mccormick2[1]: - x[1] + r[1] <= 0
 mccormick2[2]: - x[2] + r[2] <= 0
 mccormick2[3]: - x[3] + r[3] <= 0
 mccormick2[4]: - x[4] + r[4] <= 0
 mccormick2[5]: - x[5] + r[5] <= 0
 mccormick2[6]: - x[6] + r[6] <= 0
 mccormick2[7]: - x[7] + r[7] <= 0
 mccormick2[8]: - x[8] + r[8] <= 0
 mccormick2[9]: - x[9] + r[9] <= 0
 mccormick2[10]: - x[10] + r[10] <= 0
 mccormick2[11]: - x[11] + r[11] <= 0
 mccormick2[12]: - x[12] + r[12] <= 0
 mccormick2[13]: - x[13] + r[13] <= 0
 mccormick2[14]: - x[14] + r[14] <= 0
 mccormick2[15]: - x[15] + r[15] <= 0
 mccormick2[16]: - x[16] + r[16] <= 0
 mccormick2[17]: - x[17] + r[17] <= 0
 mccormick2[18]: - x[18] + r[18] <= 0
 mccormick2[19]: - x[19] + r[19] <= 0
 mccormick2[20]: - x[20] + r[20] <= 0
 mccormick2[21]: - x[21] + r[21] <= 0
 mccormick2[22]: - x[22] + r[22] <= 0
 mccormick2[23]: - x[23] + r[23] <= 0
 mccormick2[24]: - x[24] + r[24] <= 0
 mccormick2[25]: - x[25] + r[25] <= 0
 mccormick2[26]: - x[26] + r[26] <= 0
 mccormick2[27]: - x[27] + r[27] <= 0
 mccormick2[28]: - x[28] + r[28] <= 0
 mccormick2[29]: - x[29] + r[29] <= 0
 mccormick2[30]: - x[30] + r[30] <= 0
 mccormick2[31]: - x[31] + r[31] <= 0
 mccormick2[32]: - x[32] + r[32] <= 0
 mccormick2[33]: - x[33] + r[33] <= 0
 mccormick2[34]: - x[34] + r[34] <= 0
 mccormick2[35]: - x[35] + r[35] <= 0
 mccormick2[36]: - x[36] + r[36] <= 0
 mccormick2[37]: - x[37] + r[37] <= 0
 mccormick2[38]: - x[38] + r[38] <= 0
 mccormick2[39]: - x[39] + r[39] <= 0
 mccormick2[40]: - x[40] + r[40] <= 0
 mccormick2[41]: - x[41] + r[41] <= 0
 mccormick2[42]: - x[42] + r[42] <= 0
 mccormick2[43]: - x[43] + r[43] <= 0
 mccormick2[44]: - x[44] + r[44] <= 0
 mccormick2[45]: - x[45] + r[45] <= 0
 mccormick2[46]: - x[46] + r[46] <= 0
 mccormick2[47]: - x[47] + r[47] <= 0
 mccormick2[48]: - x[48] + r[48] <= 0
 mccormick2[49]: - x[49] + r[49] <= 0
 mccormick2[50]: - x[50] + r[50] <= 0
 mccormick2[51]: - x[51] + r[51] <= 0
 mccormick2[52]: - x[52] + r[52] <= 0
 mccormick2[53]: - x[53] + r[53] <= 0
 mccormick2[54]: - x[54] + r[54] <= 0
 mccormick2[55]: - x[55] + r[55] <= 0
 mccormick2[56]: - x[56] + r[56] <= 0
 mccormick2[57]: - x[57] + r[57] <= 0
 mccormick2[58]: - x[58] + r[58] <= 0
 mccormick2[59]: - x[59] + r[59] <= 0
 mccormick2[60]: - x[60] + r[60] <= 0
 mccormick2[61]: - x[61] + r[61] <= 0
 mccormick2[62]: - x[62] + r[62] <= 0
 mccormick2[63]: - x[63] + r[63] <= 0
 mccormick2[64]: - x[64] + r[64] <= 0
 mccormick2[65]: - x[65] + r[65] <= 0
 mccormick2[66]: - x[66] + r[66] <= 0
 mccormick2[67]: - x[67] + r[67] <= 0
 mccormick2[68]: - x[68] + r[68] <= 0
 mccormick2[69]: - x[69] + r[69] <= 0
 mccormick2[70]: - x[70] + r[70] <= 0
 mccormick2[71]: - x[71] + r[71] <= 0
 mccormick2[72]: - x[72] + r[72] <= 0
 mccormick2[73]: - x[73] + r[73] <= 0
 mccormick2[74]: - x[74] + r[74] <= 0
 mccormick2[75]: - x[75] + r[75] <= 0
 mccormick2[76]: - x[76] + r[76] <= 0
 mccormick2[77]: - x[77] + r[77] <= 0
 mccormick2[78]: - x[78] + r[78] <= 0
 mccormick2[79]: - x[79] + r[79] <= 0
 mccormick2[80]: - x[80] + r[80] <= 0
 mccormick2[81]: - x[81] + r[81] <= 0
 mccormick2[82]: - x[82] + r[82] <= 0
 mccormick2[83]: - x[83] + r[83] <= 0
 mccormick2[84]: - x[84] + r[84] <= 0
 mccormick2[85]: - x[85] + r[85] <= 0
 mccormick2[86]: - x[86] + r[86] <= 0
 mccormick2[87]: - x[87] + r[87] <= 0
 mccormick2[88]: - x[88] + r[88] <= 0
 mccormick2[89]: - x[89] + r[89] <= 0
 mccormick2[90]: - x[90] + r[90] <= 0
 mccormick2[91]: - x[91] + r[91] <= 0
 mccormick2[92]: - x[92] + r[92] <= 0
 mccormick2[93]: - x[93] + r[93] <= 0
 mccormick2[94]: - x[94] + r[94] <= 0
 mccormick2[95]: - x[95] + r[95] <= 0
 mccormick2[96]: - x[96] + r[96] <= 0
 mccormick2[97]: - x[97] + r[97] <= 0
 mccormick2[98]: - x[98] + r[98] <= 0
 mccormick2[99]: - x[99] + r[99] <= 0
 mccormick2[100]: - x[100] + r[100] <= 0
 mccormick2[101]: - x[101] + r[101] <= 0
 mccormick2[102]: - x[102] + r[102] <= 0
 mccormick2[103]: - x[103] + r[103] <= 0
 mccormick2[104]: - x[104] + r[104] <= 0
 mccormick2[105]: - x[105] + r[105] <= 0
 mccormick2[106]: - x[106] + r[106] <= 0
 mccormick2[107]: - x[107] + r[107] <= 0
 mccormick2[108]: - x[108] + r[108] <= 0
 mccormick2[109]: - x[109] + r[109] <= 0
 mccormick2[110]: - x[110] + r[110] <= 0
 mccormick2[111]: - x[111] + r[111] <= 0
 mccormick2[112]: - x[112] + r[112] <= 0
 mccormick2[113]: - x[113] + r[113] <= 0
 mccormick2[114]: - x[114] + r[114] <= 0
 mccormick2[115]: - x[115] + r[115] <= 0
 mccormick2[116]: - x[116] + r[116] <= 0
 mccormick2[117]: - x[117] + r[117] <= 0
 mccormick2[118]: - x[118] + r[118] <= 0
 mccormick2[119]: - x[119] + r[119] <= 0
 mccormick2[120]: - x[120] + r[120] <= 0
 mccormick2[121]: - x[121] + r[121] <= 0
 mccormick2[122]: - x[122] + r[122] <= 0
 mccormick2[123]: - x[123] + r[123] <= 0
 mccormick2[124]: - x[124] + r[124] <= 0
 mccormick2[125]: - x[125] + r[125] <= 0
 mccormick2[126]: - x[126] + r[126] <= 0
 mccormick2[127]: - x[127] + r[127] <= 0
 mccormick2[128]: - x[128] + r[128] <= 0
 mccormick2[129]: - x[129] + r[129] <= 0
 mccormick2[130]: - x[130] + r[130] <= 0
 mccormick2[131]: - x[131] + r[131] <= 0
 mccormick2[132]: - x[132] + r[132] <= 0
 mccormick2[133]: - x[133] + r[133] <= 0
 mccormick2[134]: - x[134] + r[134] <= 0
 mccormick2[135]: - x[135] + r[135] <= 0
 mccormick2[136]: - x[136] + r[136] <= 0
 mccormick2[137]: - x[137] + r[137] <= 0
 mccormick2[138]: - x[138] + r[138] <= 0
 mccormick2[139]: - x[139] + r[139] <= 0
 mccormick2[140]: - x[140] + r[140] <= 0
 mccormick2[141]: - x[141] + r[141] <= 0
 mccormick2[142]: - x[142] + r[142] <= 0
 mccormick2[143]: - x[143] + r[143] <= 0
 mccormick2[144]: - x[144] + r[144] <= 0
 mccormick2[145]: - x[145] + r[145] <= 0
 mccormick2[146]: - x[146] + r[146] <= 0
 mccormick2[147]: - x[147] + r[147] <= 0
 mccormick2[148]: - x[148] + r[148] <= 0
 mccormick2[149]: - x[149] + r[149] <= 0
 mccormick3[0]: x[0] + u[0] - r[0] <= 1
 mccormick3[1]: x[1] + u[1] - r[1] <= 1
 mccormick3[2]: x[2] + u[2] - r[2] <= 1
 mccormick3[3]: x[3] + u[3] - r[3] <= 1
 mccormick3[4]: x[4] + u[4] - r[4] <= 1
 mccormick3[5]: x[5] + u[5] - r[5] <= 1
 mccormick3[6]: x[6] + u[6] - r[6] <= 1
 mccormick3[7]: x[7] + u[7] - r[7] <= 1
 mccormick3[8]: x[8] + u[8] - r[8] <= 1
 mccormick3[9]: x[9] + u[9] - r[9] <= 1
 mccormick3[10]: x[10] + u[10] - r[10] <= 1
 mccormick3[11]: x[11] + u[11] - r[11] <= 1
 mccormick3[12]: x[12] + u[12] - r[12] <= 1
 mccormick3[13]: x[13] + u[13] - r[13] <= 1
 mccormick3[14]: x[14] + u[14] - r[14] <= 1
 mccormick3[15]: x[15] + u[15] - r[15] <= 1
 mccormick3[16]: x[16] + u[16] - r[16] <= 1
 mccormick3[17]: x[17] + u[17] - r[17] <= 1
 mccormick3[18]: x[18] + u[18] - r[18] <= 1
 mccormick3[19]: x[19] + u[19] - r[19] <= 1
 mccormick3[20]: x[20] + u[20] - r[20] <= 1
 mccormick3[21]: x[21] + u[21] - r[21] <= 1
 mccormick3[22]: x[22] + u[22] - r[22] <= 1
 mccormick3[23]: x[23] + u[23] - r[23] <= 1
 mccormick3[24]: x[24] + u[24] - r[24] <= 1
 mccormick3[25]: x[25] + u[25] - r[25] <= 1
 mccormick3[26]: x[26] + u[26] - r[26] <= 1
 mccormick3[27]: x[27] + u[27] - r[27] <= 1
 mccormick3[28]: x[28] + u[28] - r[28] <= 1
 mccormick3[29]: x[29] + u[29] - r[29] <= 1
 mccormick3[30]: x[30] + u[30] - r[30] <= 1
 mccormick3[31]: x[31] + u[31] - r[31] <= 1
 mccormick3[32]: x[32] + u[32] - r[32] <= 1
 mccormick3[33]: x[33] + u[33] - r[33] <= 1
 mccormick3[34]: x[34] + u[34] - r[34] <= 1
 mccormick3[35]: x[35] + u[35] - r[35] <= 1
 mccormick3[36]: x[36] + u[36] - r[36] <= 1
 mccormick3[37]: x[37] + u[37] - r[37] <= 1
 mccormick3[38]: x[38] + u[38] - r[38] <= 1
 mccormick3[39]: x[39] + u[39] - r[39] <= 1
 mccormick3[40]: x[40] + u[40] - r[40] <= 1
 mccormick3[41]: x[41] + u[41] - r[41] <= 1
 mccormick3[42]: x[42] + u[42] - r[42] <= 1
 mccormick3[43]: x[43] + u[43] - r[43] <= 1
 mccormick3[44]: x[44] + u[44] - r[44] <= 1
 mccormick3[45]: x[45] + u[45] - r[45] <= 1
 mccormick3[46]: x[46] + u[46] - r[46] <= 1
 mccormick3[47]: x[47] + u[47] - r[47] <= 1
 mccormick3[48]: x[48] + u[48] - r[48] <= 1
 mccormick3[49]: x[49] + u[49] - r[49] <= 1
 mccormick3[50]: x[50] + u[50] - r[50] <= 1
 mccormick3[51]: x[51] + u[51] - r[51] <= 1
 mccormick3[52]: x[52] + u[52] - r[52] <= 1
 mccormick3[53]: x[53] + u[53] - r[53] <= 1
 mccormick3[54]: x[54] + u[54] - r[54] <= 1
 mccormick3[55]: x[55] + u[55] - r[55] <= 1
 mccormick3[56]: x[56] + u[56] - r[56] <= 1
 mccormick3[57]: x[57] + u[57] - r[57] <= 1
 mccormick3[58]: x[58] + u[58] - r[58] <= 1
 mccormick3[59]: x[59] + u[59] - r[59] <= 1
 mccormick3[60]: x[60] + u[60] - r[60] <= 1
 mccormick3[61]: x[61] + u[61] - r[61] <= 1
 mccormick3[62]: x[62] + u[62] - r[62] <= 1
 mccormick3[63]: x[63] + u[63] - r[63] <= 1
 mccormick3[64]: x[64] + u[64] - r[64] <= 1
 mccormick3[65]: x[65] + u[65] - r[65] <= 1
 mccormick3[66]: x[66] + u[66] - r[66] <= 1
 mccormick3[67]: x[67] + u[67] - r[67] <= 1
 mccormick3[68]: x[68] + u[68] - r[68] <= 1
 mccormick3[69]: x[69] + u[69] - r[69] <= 1
 mccormick3[70]: x[70] + u[70] - r[70] <= 1
 mccormick3[71]: x[71] + u[71] - r[71] <= 1
 mccormick3[72]: x[72] + u[72] - r[72] <= 1
 mccormick3[73]: x[73] + u[73] - r[73] <= 1
 mccormick3[74]: x[74] + u[74] - r[74] <= 1
 mccormick3[75]: x[75] + u[75] - r[75] <= 1
 mccormick3[76]: x[76] + u[76] - r[76] <= 1
 mccormick3[77]: x[77] + u[77] - r[77] <= 1
 mccormick3[78]: x[78] + u[78] - r[78] <= 1
 mccormick3[79]: x[79] + u[79] - r[79] <= 1
 mccormick3[80]: x[80] + u[80] - r[80] <= 1
 mccormick3[81]: x[81] + u[81] - r[81] <= 1
 mccormick3[82]: x[82] + u[82] - r[82] <= 1
 mccormick3[83]: x[83] + u[83] - r[83] <= 1
 mccormick3[84]: x[84] + u[84] - r[84] <= 1
 mccormick3[85]: x[85] + u[85] - r[85] <= 1
 mccormick3[86]: x[86] + u[86] - r[86] <= 1
 mccormick3[87]: x[87] + u[87] - r[87] <= 1
 mccormick3[88]: x[88] + u[88] - r[88] <= 1
 mccormick3[89]: x[89] + u[89] - r[89] <= 1
 mccormick3[90]: x[90] + u[90] - r[90] <= 1
 mccormick3[91]: x[91] + u[91] - r[91] <= 1
 mccormick3[92]: x[92] + u[92] - r[92] <= 1
 mccormick3[93]: x[93] + u[93] - r[93] <= 1
 mccormick3[94]: x[94] + u[94] - r[94] <= 1
 mccormick3[95]: x[95] + u[95] - r[95] <= 1
 mccormick3[96]: x[96] + u[96] - r[96] <= 1
 mccormick3[97]: x[97] + u[97] - r[97] <= 1
 mccormick3[98]: x[98] + u[98] - r[98] <= 1
 mccormick3[99]: x[99] + u[99] - r[99] <= 1
 mccormick3[100]: x[100] + u[100] - r[100] <= 1
 mccormick3[101]: x[101] + u[101] - r[101] <= 1
 mccormick3[102]: x[102] + u[102] - r[102] <= 1
 mccormick3[103]: x[103] + u[103] - r[103] <= 1
 mccormick3[104]: x[104] + u[104] - r[104] <= 1
 mccormick3[105]: x[105] + u[105] - r[105] <= 1
 mccormick3[106]: x[106] + u[106] - r[106] <= 1
 mccormick3[107]: x[107] + u[107] - r[107] <= 1
 mccormick3[108]: x[108] + u[108] - r[108] <= 1
 mccormick3[109]: x[109] + u[109] - r[109] <= 1
 mccormick3[110]: x[110] + u[110] - r[110] <= 1
 mccormick3[111]: x[111] + u[111] - r[111] <= 1
 mccormick3[112]: x[112] + u[112] - r[112] <= 1
 mccormick3[113]: x[113] + u[113] - r[113] <= 1
 mccormick3[114]: x[114] + u[114] - r[114] <= 1
 mccormick3[115]: x[115] + u[115] - r[115] <= 1
 mccormick3[116]: x[116] + u[116] - r[116] <= 1
 mccormick3[117]: x[117] + u[117] - r[117] <= 1
 mccormick3[118]: x[118] + u[118] - r[118] <= 1
 mccormick3[119]: x[119] + u[119] - r[119] <= 1
 mccormick3[120]: x[120] + u[120] - r[120] <= 1
 mccormick3[121]: x[121] + u[121] - r[121] <= 1
 mccormick3[122]: x[122] + u[122] - r[122] <= 1
 mccormick3[123]: x[123] + u[123] - r[123] <= 1
 mccormick3[124]: x[124] + u[124] - r[124] <= 1
 mccormick3[125]: x[125] + u[125] - r[125] <= 1
 mccormick3[126]: x[126] + u[126] - r[126] <= 1
 mccormick3[127]: x[127] + u[127] - r[127] <= 1
 mccormick3[128]: x[128] + u[128] - r[128] <= 1
 mccormick3[129]: x[129] + u[129] - r[129] <= 1
 mccormick3[130]: x[130] + u[130] - r[130] <= 1
 mccormick3[131]: x[131] + u[131] - r[131] <= 1
 mccormick3[132]: x[132] + u[132] - r[132] <= 1
 mccormick3[133]: x[133] + u[133] - r[133] <= 1
 mccormick3[134]: x[134] + u[134] - r[134] <= 1
 mccormick3[135]: x[135] + u[135] - r[135] <= 1
 mccormick3[136]: x[136] + u[136] - r[136] <= 1
 mccormick3[137]: x[137] + u[137] - r[137] <= 1
 mccormick3[138]: x[138] + u[138] - r[138] <= 1
 mccormick3[139]: x[139] + u[139] - r[139] <= 1
 mccormick3[140]: x[140] + u[140] - r[140] <= 1
 mccormick3[141]: x[141] + u[141] - r[141] <= 1
 mccormick3[142]: x[142] + u[142] - r[142] <= 1
 mccormick3[143]: x[143] + u[143] - r[143] <= 1
 mccormick3[144]: x[144] + u[144] - r[144] <= 1
 mccormick3[145]: x[145] + u[145] - r[145] <= 1
 mccormick3[146]: x[146] + u[146] - r[146] <= 1
 mccormick3[147]: x[147] + u[147] - r[147] <= 1
 mccormick3[148]: x[148] + u[148] - r[148] <= 1
 mccormick3[149]: x[149] + u[149] - r[149] <= 1
Bounds
Binaries
 x[0] x[1] x[2] x[3] x[4] x[5] x[6] x[7] x[8] x[9] x[10] x[11] x[12] x[13]
 x[14] x[15] x[16] x[17] x[18] x[19] x[20] x[21] x[22] x[23] x[24] x[25]
 x[26] x[27] x[28] x[29] x[30] x[31] x[32] x[33] x[34] x[35] x[36] x[37]
 x[38] x[39] x[40] x[41] x[42] x[43] x[44] x[45] x[46] x[47] x[48] x[49]
 x[50] x[51] x[52] x[53] x[54] x[55] x[56] x[57] x[58] x[59] x[60] x[61]
 x[62] x[63] x[64] x[65] x[66] x[67] x[68] x[69] x[70] x[71] x[72] x[73]
 x[74] x[75] x[76] x[77] x[78] x[79] x[80] x[81] x[82] x[83] x[84] x[85]
 x[86] x[87] x[88] x[89] x[90] x[91] x[92] x[93] x[94] x[95] x[96] x[97]
 x[98] x[99] x[100] x[101] x[102] x[103] x[104] x[105] x[106] x[107] x[108]
 x[109] x[110] x[111] x[112] x[113] x[114] x[115] x[116] x[117] x[118]
 x[119] x[120] x[121] x[122] x[123] x[124] x[125] x[126] x[127] x[128]
 x[129] x[130] x[131] x[132] x[133] x[134] x[135] x[136] x[137] x[138]
 x[139] x[140] x[141] x[142] x[143] x[144] x[145] x[146] x[147] x[148]
 x[149] u[0] u[1] u[2] u[3] u[4] u[5] u[6] u[7] u[8] u[9] u[10] u[11] u[12]
 u[13] u[14] u[15] u[16] u[17] u[18] u[19] u[20] u[21] u[22] u[23] u[24]
 u[25] u[26] u[27] u[28] u[29] u[30] u[31] u[32] u[33] u[34] u[35] u[36]
 u[37] u[38] u[39] u[40] u[41] u[42] u[43] u[44] u[45] u[46] u[47] u[48]
 u[49] u[50] u[51] u[52] u[53] u[54] u[55] u[56] u[57] u[58] u[59] u[60]
 u[61] u[62] u[63] u[64] u[65] u[66] u[67] u[68] u[69] u[70] u[71] u[72]
 u[73] u[74] u[75] u[76] u[77] u[78] u[79] u[80] u[81] u[82] u[83] u[84]
 u[85] u[86] u[87] u[88] u[89] u[90] u[91] u[92] u[93] u[94] u[95] u[96]
 u[97] u[98] u[99] u[100] u[101] u[102] u[103] u[104] u[105] u[106] u[107]
 u[108] u[109] u[110] u[111] u[112] u[113] u[114] u[115] u[116] u[117]
 u[118] u[119] u[120] u[121] u[122] u[123] u[124] u[125] u[126] u[127]
 u[128] u[129] u[130] u[131] u[132] u[133] u[134] u[135] u[136] u[137]
 u[138] u[139] u[140] u[141] u[142] u[143] u[144] u[145] u[146] u[147]
 u[148] u[149] r[0] r[1] r[2] r[3] r[4] r[5] r[6] r[7] r[8] r[9] r[10]
 r[11] r[12] r[13] r[14] r[15] r[16] r[17] r[18] r[19] r[20] r[21] r[22]
 r[23] r[24] r[25] r[26] r[27] r[28] r[29] r[30] r[31] r[32] r[33] r[34]
 r[35] r[36] r[37] r[38] r[39] r[40] r[41] r[42] r[43] r[44] r[45] r[46]
 r[47] r[48] r[49] r[50] r[51] r[52] r[53] r[54] r[55] r[56] r[57] r[58]
 r[59] r[60] r[61] r[62] r[63] r[64] r[65] r[66] r[67] r[68] r[69] r[70]
 r[71] r[72] r[73] r[74] r[75] r[76] r[77] r[78] r[79] r[80] r[81] r[82]
 r[83] r[84] r[85] r[86] r[87] r[88] r[89] r[90] r[91] r[92] r[93] r[94]
 r[95] r[96] r[97] r[98] r[99] r[100] r[101] r[102] r[103] r[104] r[105]
 r[106] r[107] r[108] r[109] r[110] r[111] r[112] r[113] r[114] r[115]
 r[116] r[117] r[118] r[119] r[120] r[121] r[122] r[123] r[124] r[125]
 r[126] r[127] r[128] r[129] r[130] r[131] r[132] r[133] r[134] r[135]
 r[136] r[137] r[138] r[139] r[140] r[141] r[142] r[143] r[144] r[145]
 r[146] r[147] r[148] r[149]
End
