instances/knapsack/discrete/knapsack_150_12.kp
26984
150
740

67 6.7 17
31 3.1 42
49 4.9 99
54 5.4 91
71 7.1 45
5 0.5 60
68 6.8 45
63 6.3 11
100 10.0 34
41 4.1 82
63 6.3 50
30 3.0 2
75 7.5 62
67 6.7 45
8 0.8 34
68 6.8 39
56 5.6 77
87 8.7 77
64 6.4 74
93 9.3 13
32 3.2 17
3 0.3 10
35 3.5 51
62 6.2 79
44 4.4 36
19 1.9 66
57 5.7 79
75 7.5 95
37 3.7 69
82 8.2 64
57 5.7 84
99 9.9 39
27 2.7 35
48 4.8 34
55 5.5 91
76 7.6 92
3 0.3 8
88 8.8 66
31 3.1 70
42 4.2 95
58 5.8 79
73 7.3 25
29 2.9 9
1 0.1 62
50 5.0 22
50 5.0 86
45 4.5 60
81 8.1 44
54 5.4 24
11 1.1 13
54 5.4 30
43 4.3 10
72 7.2 10
79 7.9 16
72 7.2 55
99 9.9 65
12 1.2 6
94 9.4 99
23 2.3 11
97 9.7 78
68 6.8 7
78 7.8 37
67 6.7 21
58 5.8 45
19 1.9 82
19 1.9 36
68 6.8 60
54 5.4 85
63 6.3 20
13 1.3 73
25 2.5 4
93 9.3 58
49 4.9 16
94 9.4 1
23 2.3 66
8 0.8 65
70 7.0 97
70 7.0 36
84 8.4 99
74 7.4 95
73 7.3 18
5 0.5 41
90 9.0 29
73 7.3 85
45 4.5 92
89 8.9 68
55 5.5 49
19 1.9 54
57 5.7 35
58 5.8 2
84 8.4 9
52 5.2 9
52 5.2 17
31 3.1 92
23 2.3 11
76 7.6 74
44 4.4 20
100 10.0 11
99 9.9 28
15 1.5 16
44 4.4 64
39 3.9 25
45 4.5 10
35 3.5 97
92 9.2 90
5 0.5 30
58 5.8 61
50 5.0 64
66 6.6 93
40 4.0 12
46 4.6 41
38 3.8 9
52 5.2 41
28 2.8 71
28 2.8 5
82 8.2 20
82 8.2 10
24 2.4 88
52 5.2 1
12 1.2 18
71 7.1 21
64 6.4 10
63 6.3 37
22 2.2 18
44 4.4 19
58 5.8 20
83 8.3 76
11 1.1 45
18 1.8 71
54 5.4 76
89 8.9 54
72 7.2 62
86 8.6 71
39 3.9 30
36 3.6 9
57 5.7 87
20 2.0 8
66 6.6 1
65 6.5 18
35 3.5 97
14 1.4 49
36 3.6 96
34 3.4 93
94 9.4 31
20 2.0 47
29 2.9 30
5 0.5 60
6 0.6 22
24 2.4 100
77 7.7 2

48629
730

[2.944265764114124 1.6982550497856492 0.06401928503905747 2.984538257344076 0.7619912839160957 1.9226363502700463 4.439185171056541 1.991220922690526 3.352803087281308 2.2425047752138383 0.3959703185954662 0.918362467657998 3.591513870610243 0.26285804280552927 2.2861511937942995 2.789737412472762 0.43767070116665396 0.3343589720103379 0.6873519011266851 1.3730671187266419 0.5382689011827955 3.6415632786927663 3.6059828514894647 2.540654786812337 4.20978553908473 0.885093033649587 3.7953495827216424 2.85969174925285 3.18410020931839 4.013957874987863 3.1738567226260415 1.7726814123301187 1.0626456240516042 2.333106546658799 2.9694923281785974 0.26236326048790465 0.25874123720416087 0.8945456676411013 2.185511940332707 4.106906737245008 1.8184480497221005 2.844668714810597 3.571264956450671 2.5149361051962353 1.6185878079548766 1.528804590008046 1.196023154551602 4.186914319527284 3.804320357235257 3.902142970689154 4.404003366806037 0.6300452795627633 0.4582484093609739 2.219986410496945 2.6933697376678105 0.8205786201076964 1.5572725828852159 2.6323241829257675 3.6312380018946158 3.602225612745212 2.1816596506162913 4.525721160205816 1.4936983325889972 0.5230930108056602 4.652803412952597 2.142711204325253 3.2974578332889846 4.3671086652585585 3.3481853201594935 4.2317292591987306 2.4663076761513074 0.26991001030372125 0.4312778856426824 3.8548114297885374 3.489331941805131 4.438023888350225 2.8700747734504826 1.8420228567074843 0.9580313122568628 3.2408391943176555 3.9267258259776723 1.5610169856844287 3.3486687127161483 4.238365715758588 3.019959172090979 1.0220835009895899 4.71857493027687 0.16347611299081924 2.6030331455454756 2.434191285793816 0.20229760528133303 0.9456792644781182 4.642577579800861 1.9727442910443813 3.6698891906609954 3.925920790455256 3.6838435260655316 0.525165570412191 0.8608012514470919 0.8937822852534955 1.6792334859353821 0.9345708463617417 1.1449677413026487 1.2558280029386477 0.8581385365237243 0.46246446994625645 1.3169179726956977 0.8178460508185401 1.3010714163433077 1.134375557928823 2.4606799097282304 4.0979875232764025 1.062399439220621 3.375360698832604 0.10523854726333444 0.1584369116273929 0.10067078562402605 2.4334826393871865 1.1338080232620862 0.6394884374981724 1.3350668307232785 0.17472412798772613 1.5788483153262018 4.41682553746838 4.0853850822426345 3.4412343180401734 4.464491118510147 2.923006277910204 1.4085366753610475 3.518917986566428 0.3845709700354842 0.7025306164027152 4.517550634370474 4.154389782126488 3.304142680795329 4.503034545885089 1.5606117957897705 4.162857275944364 2.759611068978564 0.3281517722049927 1.1992571637418918 4.378899344175725 0.05467162128894256 0.9742480304635905 2.8813623165802564 0.5002794966407607 0.7431375744046499 3.715618151565845 2.8277762090127925 0.9753234745598646]

[99 36 58 31 16 61 17 7 49 94 39 75 64 44 100 60 69 8 41 26 77 67 88 42 72 60 30 75 17 39 33 19 23 61 48 9 68 44 76 38 3 5 50 89 99 94 17 65 83 96 82 80 21 100 88 75 85 46 56 38 64 22 67 86 35 40 32 42 92 33 81 89 62 3 35 92 90 3 72 38 33 93 22 85 61 49 67 68 74 15 4 24 12 59 92 29 57 96 56 44 57 84 6 48 5 30 55 98 58 25 34 27 33 41 81 34 75 65 73 52 79 20 3 54 85 38 55 31 66 51 17 13 22 12 60 26 97 42 73 12 71 16 3 47 93 82 34 31 28 58]
